Version identifier: 12.10.0.0 | 2019-11-26 | 843d4de
CPXPARAM_Read_DataCheck                          1
CPXPARAM_RandomSeed                              201903125
CPXPARAM_TimeLimit                               7200
Parallel mode: deterministic, using up to 8 threads for concurrent optimization:
 * Starting dual Simplex on 1 thread...
 * Starting Barrier on 6 threads...
 * Starting primal Simplex on 1 thread...
Tried aggregator 1 time.
No LP presolve or aggregator reductions.
Presolve time = 0.01 sec. (5.86 ticks)

Iteration log . . .
Iteration:     1   Dual objective     =          1217.000000
Perturbation started.
Iteration:   101   Dual objective     =          1217.000000
Iteration:   238   Dual objective     =          1217.029818
Iteration:   388   Dual objective     =          1217.067009
Iteration:   613   Dual objective     =          1217.067014
Iteration:   842   Dual objective     =          1217.067017
Iteration:  1069   Dual objective     =          1217.067019
Iteration:  1296   Dual objective     =          1217.067021
Iteration:  1534   Dual objective     =          1217.067023
Iteration:  1775   Dual objective     =          1217.067024
Iteration:  2006   Dual objective     =          1217.067024
Removing perturbation.

Dual simplex solved model.

